p tw 20 67
e 0 1
e 0 2
e 0 4
e 0 5
e 0 10
e 0 12
e 0 13
e 0 14
e 0 15
e 1 2
e 1 8
e 1 12
e 1 14
e 2 10
e 2 13
e 2 14
e 2 16
e 3 5
e 3 7
e 3 9
e 3 15
e 3 16
e 3 17
e 4 5
e 4 7
e 4 9
e 4 15
e 4 16
e 5 9
e 5 10
e 5 12
e 5 16
e 5 17
e 5 18
e 6 8
e 6 9
e 6 12
e 6 13
e 6 14
e 6 15
e 6 17
e 6 18
e 7 8
e 7 10
e 7 16
e 7 18
e 8 9
e 8 13
e 8 14
e 8 15
e 8 16
e 8 17
e 8 19
e 9 10
e 10 11
e 10 12
e 11 16
e 11 19
e 12 16
e 12 18
e 13 15
e 13 16
e 14 16
e 14 17
e 14 19
e 15 17
e 17 18
